webassembly/ejemplos_dzn/10/folder10_json_41.dzn
TERM = { '.', 'in_1', 'local_0', 'local_1', 'in_2', 'in_4', 'in_3', 's(1)', 's(0)', 'in_0'};
null = '.';
s = 10;
n = 10;
ndeps = 1;
max_registers_sz = 5;
NR = 2;
registers = [|'local_0', 's(1)', |'local_1', 's(1)'|];
dependencies = [|'i32.store8_4', 'i32.store16_9'|];
GET_ENUM = { GET1, GET2, GET3, GET4, GET5, GET6, GET7};
SET_ENUM = { SET1, SET2, SET3, SET4, SET5, SET6, SET7};
TEE_ENUM = { TEE1, TEE2, TEE3, TEE4, TEE5, TEE6, TEE7};
N = 4;
OP = { 'i32.store8_4', 'i32.add_0', 'i32.add_1', 'i32.store16_9' };
in_ops = [2, 2, 2, 2 ];
out_ops = [0, 1, 1, 0 ];
in1 = ['in_2', 'in_0', 'local_1', 's(1)' ];
in2 = ['in_3', 'in_1', 's(0)', 'in_4' ];
in3 = ['.', '.', '.', '.' ];
out1 = ['.', 's(0)', 's(1)', '.' ];
out2 = ['.', '.', '.', '.' ];
out3 = ['.', '.', '.', '.' ];
comm = [false, true, true, false ];
gas = [1, 1, 1, 1 ];
sz = [1, 1, 1, 1 ];
stor = [true, false, false, true ];
lb = [ 1, 1, 1, 1 ];
ub = [ 10, 10, 10, 10 ];
startstack = [ 'in_0', 'in_1', 'in_2', 'in_3', 'in_4', null, null, null, null, null ];
endstack = [ null, null, null, null, null, null, null, null, null, null ];
